NAME : rnd9_20.tsp
TYPE : TSP
DIMENSION : 20
EDGE_WEIGHT_TYPE : EUC_2D
NODE_COORD_SECTION
1 249 98
2 552 829
3 707 956
4 141 928
5 631 818
6 402 634
7 338 870
8 826 473
9 950 651
10 286 4
11 687 374
12 478 11
13 415 12
14 45 2
15 269 989
16 515 668
17 491 520
18 61 188
19 838 151
20 148 390
